seed= 2052018 ;
N= 10 ;
M= 2 ;
F= 2 ;
K= 4 ;
T= 12 ;

p=[ 2 2 2 2 2 2 2 2 2 2 ];
r=[ 2 2 0 0 2 2 0 0 1 0 ];
d=[ 0 4 0 0 4 4 2 1 2 0 ];
s=[ 1 1 1 1 1 1 1 1 1 1 ];
w=[ 3 3 4 4 1 1 1 4 5 2 ];
f=[ 1 1 1 1 1 2 2 2 2 2 ];

e1=[ 10 10 10 10 10 10 8 8 8 8 8 8 ];
e2=[ 10 10 10 10 9 9 8 8 8 8 9 9 ];